/*------------
 * Multi-knapsack gmpl data
 *------------------------------*/

data;

param N := 3;

param M :=3;

param b:= 1 2, 2 4, 3 1;

param a:= 1 4, 2 2, 3 5;

param A : 1 2 3 :=
      1   2 2 1
      2   1 3 1
      3   4 1 2;

end;
